SCIP Status        : solving was interrupted [time limit reached]
Total Time         :    3600.02
  solving          :    3600.01
  presolving       :       0.45 (included in solving)
  reading          :       0.01
  copying          :       0.32 (27 #copies) (minimal 0.00, maximal 0.03, average 0.01)
Original Problem   :
  Problem name     : bbbenchmark/pw05_100.6.cut
  Variables        : 101 (100 binary, 0 integer, 0 implicit integer, 1 continuous)
  Constraints      : 1 initial, 1 maximal
  Objective        : minimize, 1 non-zeros (abs.min = 1, abs.max = 1)
Presolved Problem  :
  Problem name     : t_bbbenchmark/pw05_100.6.cut
  Variables        : 1956 (100 binary, 0 integer, 1843 implicit integer, 13 continuous)
  Constraints      : 1880 initial, 3800 maximal
  Objective        : minimize, 1 non-zeros (abs.min = 1, abs.max = 1)
  Nonzeros         : 8809 constraint, 202 clique table
Presolvers         :   ExecTime  SetupTime  Calls  FixedVars   AggrVars   ChgTypes  ChgBounds   AddHoles    DelCons    AddCons   ChgSides   ChgCoefs
  boundshift       :       0.00       0.00      0          0          0          0          0          0          0          0          0          0
  convertinttobin  :       0.00       0.00      0          0          0          0          0          0          0          0          0          0
  domcol           :       0.00       0.00      1          0          0          0          0          0          0          0          0          0
  dualagg          :       0.00       0.00      0          0          0          0          0          0          0          0          0          0
  dualcomp         :       0.00       0.00      1          0          0          0          0          0          0          0          0          0
  dualinfer        :       0.00       0.00      0          0          0          0          0          0          0          0          0          0
  dualsparsify     :       0.00       0.00      1          0          0          0          0          0          0          0          0          0
  gateextraction   :       0.00       0.00      0          0          0          0          0          0          0          0          0          0
  implics          :       0.00       0.00      2          0          0          0          0          0          0          0          0          0
  inttobinary      :       0.00       0.00      0          0          0          0          0          0          0          0          0          0
  qpkktref         :       0.00       0.00      0          0          0          0          0          0          0          0          0          0
  redvub           :       0.00       0.00      0          0          0          0          0          0          0          0          0          0
  sparsify         :       0.00       0.00      1          0          0          0          0          0          0          0          0          0
  stuffing         :       0.00       0.00      0          0          0          0          0          0          0          0          0          0
  trivial          :       0.00       0.00      4          0          0          0          0          0          0          0          0          0
  tworowbnd        :       0.00       0.00      0          0          0          0          0          0          0          0          0          0
  dualfix          :       0.00       0.00      4          0          0          0          0          0          0          0          0          0
  genvbounds       :       0.00       0.00      0          0          0          0          0          0          0          0          0          0
  probing          :       0.30       0.00      1          0          0          0          0          0          0          0          0          0
  pseudoobj        :       0.00       0.00      1          0          0          0          1          0          0          0          0          0
  symmetry         :       0.00       0.00      0          0          0          0          0          0          0          0          0          0
  vbounds          :       0.00       0.00      1          0          0          0          0          0          0          0          0          0
  varbound         :       0.00       0.00      2          0          0          0          0          0          0          0          0          0
  and              :       0.01       0.00      2          0          0          0          0          0          0          0          0          0
  linear           :       0.00       0.00      2          0          0          0          0          0          0          0          0          0
  logicor          :       0.00       0.00      0          0          0          0          0          0          0          0          0          0
  bounddisjunction :       0.00       0.00      0          0          0          0          0          0          0          0          0          0
  nonlinear        :       0.12       0.00      5          0          0          0          1          0          0       1879          0          0
  benders          :       0.00       0.00      0          0          0          0          0          0          0          0          0          0
  components       :       0.00       0.00      1          0          0          0          0          0          0          0          0          0
  root node        :          -          -      -          0          -          -         13          -          -          -          -          -
Constraints        :     Number  MaxNumber  #Separate #Propagate    #EnfoLP    #EnfoRelax  #EnfoPS    #Check   #ResProp    Cutoffs    DomReds       Cuts    Applied      Conss   Children
  benderslp        :          0          0          0          0      24210          0          0       3730          0          0          0          0          0          0          0
  integral         :          0          0          0          0      24210          0          0       3730          0          0        291          0          0        245      47960
  varbound         :         12         12        207     300582          0          0          0         27          0          0      18696          0          0          0          0
  and              :       1843       1843      32255     315143          0          0          0         27     168712          0     132944       5717       5151          0          0
  linear           :         25+        47        207     315202          0          0          0         25       3202         32      59979          0          0          0          0
  logicor          :          0+      1082          0      39928          0          0          0          0         43        121         70          0          0          0          0
  bounddisjunction :          0+       938          0      32459          0          0          0          0          3         11          4          0          0          0          0
  benders          :          0          0          0          0          0          0          0         28          0          0          0          0          0          0          0
  countsols        :          0          0          0          0          0          0          0         28          0          0          0          0          0          0          0
  components       :          0          0          0          0          0          0          0          0          0          0          0          0          0          0          0
Constraint Timings :  TotalTime  SetupTime   Separate  Propagate     EnfoLP     EnfoPS     EnfoRelax   Check    ResProp    SB-Prop
  benderslp        :       0.01       0.00       0.00       0.00       0.01       0.00       0.00       0.00       0.00       0.00
  integral         :      53.84       0.00       0.00       0.00      53.84       0.00       0.00       0.00       0.00       0.00
  varbound         :       0.44       0.00       0.00       0.43       0.00       0.00       0.00       0.00       0.00       0.01
  and              :      32.25       0.00      19.96      12.07       0.00       0.00       0.00       0.01       0.11       0.10
  linear           :       1.30       0.00       0.20       1.10       0.00       0.00       0.00       0.00       0.00       0.00
  logicor          :       1.19       0.00       0.00       1.19       0.00       0.00       0.00       0.00       0.00       0.00
  bounddisjunction :       0.97       0.00       0.00       0.97       0.00       0.00       0.00       0.00       0.00       0.00
  benders          :       0.00       0.00       0.00       0.00       0.00       0.00       0.00       0.00       0.00       0.00
  countsols        :       0.00       0.00       0.00       0.00       0.00       0.00       0.00       0.00       0.00       0.00
  components       :       0.09       0.00       0.00       0.09       0.00       0.00       0.00       0.00       0.00       0.00
Propagators        : #Propagate   #ResProp    Cutoffs    DomReds
  dualfix          :          4          0          0          0
  genvbounds       :          0          0          0          0
  nlobbt           :          0          0          0          0
  obbt             :          0          0          0          0
  probing          :          0          0          0          0
  pseudoobj        :     106468          0          0         13
  redcost          :      59559          0          0      12767
  rootredcost      :          7          0          0          0
  symmetry         :          0          0          0          0
  vbounds          :      38849          0          0          0
Propagator Timings :  TotalTime  SetupTime   Presolve  Propagate    ResProp    SB-Prop
  dualfix          :       0.00       0.00       0.00       0.00       0.00       0.00
  genvbounds       :       0.18       0.00       0.00       0.18       0.00       0.00
  nlobbt           :       0.00       0.00       0.00       0.00       0.00       0.00
  obbt             :       0.00       0.00       0.00       0.00       0.00       0.00
  probing          :       0.30       0.00       0.30       0.00       0.00       0.00
  pseudoobj        :       0.23       0.00       0.00       0.23       0.00       0.00
  redcost          :       3.98       0.00       0.00       3.98       0.00       0.00
  rootredcost      :       0.26       0.00       0.00       0.26       0.00       0.00
  symmetry         :       0.07       0.00       0.00       0.07       0.00       0.00
  vbounds          :       0.23       0.00       0.00       0.23       0.00       0.00
Conflict Analysis  :       Time      Calls    Success    DomReds  Conflicts   Literals    Reconvs ReconvLits   Dualrays   Nonzeros   LP Iters   (pool size: [10000,10000])
  propagation      :       0.02        132        108          -        124       56.8          0        0.0          -          -          -
  infeasible LP    :       0.28        162        162          -       7133      154.3          0        0.0        264      208.7          0
  bound exceed. LP :      11.35       1981       1744          -      43489      108.9          0        0.0          0        0.0      28483
  strong branching :       0.00          0          0          -          0        0.0          0        0.0          -          -          0
  pseudo solution  :       0.00          0          0          -          0        0.0          0        0.0          -          -          -
  applied globally :       0.21          -          -          0       8628      127.6          -          -        264          -          -
  applied locally  :          -          -          -          0          0        0.0          -          -          0          -          -
Separators         :   ExecTime  SetupTime      Calls  RootCalls    Cutoffs    DomReds  FoundCuts ViaPoolAdd  DirectAdd    Applied ViaPoolApp  DirectApp      Conss
  cut pool         :       3.56          -      14112        234          -          -      37220     470261          -          -          -          -          -    (maximal pool size:       2266)
  aggregation      :     665.17       0.00       6213        207          0          0          0          0          0          0          0          0          0
  > cmir           :          -          -          -          -          -          -          -          0          0          0          0          0          -
  > flowcover      :          -          -          -          -          -          -          -          0          0          0          0          0          -
  > knapsackcover  :          -          -          -          -          -          -          -          0          0          0          0          0          -
  cgmip            :       0.00       0.00          0          0          0          0          0          0          0          0          0          0          0
  clique           :       0.01       0.00        207        207          0          0          0          0          0          0          0          0          0
  closecuts        :       0.00       0.00          0          0          0          0          0          0          0          0          0          0          0
  convexproj       :       0.00       0.00          0          0          0          0          0          0          0          0          0          0          0
  disjunctive      :       0.00       0.00          0          0          0          0          0          0          0          0          0          0          0
  eccuts           :       0.00       0.00          0          0          0          0          0          0          0          0          0          0          0
  gauge            :       0.00       0.00          0          0          0          0          0          0          0          0          0          0          0
  gomory           :       0.00       0.00          0          0          0          0          0          0          0          0          0          0          0
  > gomorymi       :          -          -          -          -          -          -          -          0          0          0          0          0          -
  > strongcg       :          -          -          -          -          -          -          -          0          0          0          0          0          -
  impliedbounds    :       0.49       0.00       6213        207          0          0         22          1          0          0          0          0          0
  interlattice     :       0.00       0.00          0          0          0          0          0          0          0          0          0          0          0
  interminor       :       0.00       0.00          0          0          0          0          0          0          0          0          0          0          0
  intersub         :       4.16       0.00        163        163          0          0        163          0        163        163          0        163          0
  intobj           :       0.00       0.00          0          0          0          0          0          0          0          0          0          0          0
  mcf              :       0.00       0.00          1          1          0          0          0          0          0          0          0          0          0
  minor            :       0.03       0.00          0          0          0          0          0          0          0          0          0          0          0
  mixing           :       0.01       0.00       6213        207          0          0          0          0          0          0          0          0          0
  oddcycle         :       0.00       0.00          0          0          0          0          0          0          0          0          0          0          0
  rapidlearning    :       0.00       0.00          0          0          0          0          0          0          0          0          0          0          0
  rlt              :       0.01       0.00         10         10          0          0          0          0          0          0          0          0          0
  zerohalf         :      72.41       0.00       5483         20          0          0      37198     470260          0      93084      93084          0          0
Cutselectors       :   ExecTime  SetupTime      Calls  RootCalls   Selected     Forced   Filtered  RootSelec   RootForc   RootFilt 
  hybrid           :       0.45       0.00       9152        207      98398          0     377743        376          0         64
Pricers            :   ExecTime  SetupTime      Calls       Vars
  problem variables:       0.00          -          0          0
Branching Rules    :   ExecTime  SetupTime   BranchLP  BranchExt   BranchPS    Cutoffs    DomReds       Cuts      Conss   Children
  allfullstrong    :       0.00       0.00          0          0          0          0          0          0          0          0
  cloud            :       0.00       0.00          0          0          0          0          0          0          0          0
  distribution     :       0.00       0.00          0          0          0          0          0          0          0          0
  fullstrong       :       0.00       0.00          0          0          0          0          0          0          0          0
  inference        :       0.00       0.00          0          0          0          0          0          0          0          0
  leastinf         :       0.00       0.00          0          0          0          0          0          0          0          0
  lookahead        :       0.00       0.00          0          0          0          0          0          0          0          0
  mostinf          :       0.00       0.00          0          0          0          0          0          0          0          0
  multaggr         :       0.00       0.00          0          0          0          0          0          0          0          0
  nodereopt        :       0.00       0.00          0          0          0          0          0          0          0          0
  pscost           :       0.00       0.00          0          0          0          0          0          0          0          0
  random           :       0.00       0.00          0          0          0          0          0          0          0          0
  relpscost        :      53.78       0.00      24210          0          0          0        291          0        245      47960
  vanillafullstrong:       0.00       0.00          0          0          0          0          0          0          0          0
Primal Heuristics  :   ExecTime  SetupTime      Calls      Found       Best
  LP solutions     :       0.00          -          -          0          0
  relax solutions  :       0.00          -          -          0          0
  pseudo solutions :       0.00          -          -          0          0
  strong branching :       0.01          -          -          0          0
  actconsdiving    :       0.00       0.00          0          0          0
  adaptivediving   :       5.31       0.00         26          0          0
  alns             :       1.20       0.00         17          8          8
  bound            :       0.00       0.00          0          0          0
  clique           :       0.01       0.00          1          0          0
  coefdiving       :       0.00       0.00          0          0          0
  completesol      :       0.00       0.00          0          0          0
  conflictdiving   :      29.82       0.00        177          0          0
  crossover        :       0.02       0.00          0          0          0
  dins             :       0.00       0.00          0          0          0
  distributiondivin:      59.24       0.00        176          0          0
  dps              :       0.00       0.00          0          0          0
  dualval          :       0.00       0.00          0          0          0
  farkasdiving     :       0.00       0.00          0          0          0
  feaspump         :       1.51       0.00          1          1          1
  fixandinfer      :       0.00       0.00          0          0          0
  fracdiving       :      54.53       0.00        176          0          0
  gins             :       0.05       0.00          0          0          0
  guideddiving     :      53.94       0.00        176          0          0
  indicator        :       0.01       0.00          0          0          0
  indicatordiving  :       0.00       0.00          0          0          0
  intdiving        :       0.00       0.00          0          0          0
  intshifting      :       0.95       0.00         39          0          0
  linesearchdiving :      33.97       0.00        176          0          0
  localbranching   :       0.00       0.00          0          0          0
  locks            :       0.01       0.00          1          0          0
  lpface           :       0.06       0.00          0          0          0
  mpec             :      90.53       0.00         11          0          0
  multistart       :       0.00       0.00          0          0          0
  mutation         :       0.00       0.00          0          0          0
  nlpdiving        :      14.54       0.00          1          0          0
  objpscostdiving  :     100.05       0.00         42          6          1
  octane           :       0.00       0.00          0          0          0
  ofins            :       0.02       0.00          0          0          0
  oneopt           :       0.03       0.00         14          0          0
  padm             :       0.00       0.00          0          0          0
  proximity        :       0.00       0.00          0          0          0
  pscostdiving     :      65.87       0.00        176          1          1
  randrounding     :       1.60       0.00       3699          0          0
  rens             :       0.00       0.00          0          0          0
  reoptsols        :       0.00       0.00          0          0          0
  repair           :       0.00       0.00          0          0          0
  rins             :       2.37       0.00         10          0          0
  rootsoldiving    :      33.18       0.00         17          0          0
  rounding         :       0.83       0.00       2497          0          0
  shiftandpropagate:       0.00       0.00          0          0          0
  shifting         :      38.84       0.00       7256          6          5
  simplerounding   :       0.04       0.00          0          0          0
  subnlp           :      45.70       0.00          0          0          0
  trivial          :       0.01       0.00          2          2          2
  trivialnegation  :       0.00       0.00          0          0          0
  trustregion      :       0.00       0.00          0          0          0
  trysol           :       0.06       0.00          0          0          0
  twoopt           :       0.00       0.00          0          0          0
  undercover       :       0.25       0.00          1          1          1
  vbounds          :       0.00       0.00          0          0          0
  veclendiving     :      25.06       0.00        176          0          0
  zeroobj          :       0.00       0.00          0          0          0
  zirounding       :       0.94       0.00       1000          0          0
  other solutions  :          -          -          -          0          -
Diving (single)    :      Calls      Nodes   LP Iters Backtracks  Conflicts   MinDepth   MaxDepth   AvgDepth  RoundSols  NLeafSols  MinSolDpt  MaxSolDpt  AvgSolDpt
  actconsdiving    :          0          -          -          -          -          -          -          -          -          -          -          -          -
  coefdiving       :          0          -          -          -          -          -          -          -          -          -          -          -          -
  conflictdiving   :        177       9061     210794        145      11867         57         80       68.7          0          -          -          -          -
  distributiondivin:        176       7232     289588        190       7427         45         74       59.1          0          -          -          -          -
  farkasdiving     :          0          -          -          -          -          -          -          -          -          -          -          -          -
  fracdiving       :        176      51296     262558        126       2121         47        721      311.9          0          -          -          -          -
  guideddiving     :        176      47850     262902         25        820         64        584      292.0          0          -          -          -          -
  indicatordiving  :          0          -          -          -          -          -          -          -          -          -          -          -          -
  linesearchdiving :        176      11769     209007         31       7211         59        117       87.0          0          -          -          -          -
  pscostdiving     :        176       8040     343290        193       7316         53         82       62.8          0          1         82         82       82.0
  veclendiving     :        176       8896     164901         34       8416         62         88       69.3          0          -          -          -          -
Diving (adaptive)  :      Calls      Nodes   LP Iters Backtracks  Conflicts   MinDepth   MaxDepth   AvgDepth  RoundSols  NLeafSols  MinSolDpt  MaxSolDpt  AvgSolDpt
  actconsdiving    :          1         44       1408          1         25         58         58       58.0          0          -          -          -          -
  coefdiving       :         12        577      10516          2        498         63         72       68.0          0          -          -          -          -
  conflictdiving   :          0          -          -          -          -          -          -          -          -          -          -          -          -
  distributiondivin:          0          -          -          -          -          -          -          -          -          -          -          -          -
  farkasdiving     :          0          -          -          -          -          -          -          -          -          -          -          -          -
  fracdiving       :          1         95        782          0          0        117        117      117.0          0          -          -          -          -
  guideddiving     :          4        949       5978          0          0        128        404      254.0          0          -          -          -          -
  indicatordiving  :          0          -          -          -          -          -          -          -          -          -          -          -          -
  linesearchdiving :          3        251       5372          0        105         94        106       99.3          0          -          -          -          -
  pscostdiving     :          1         45       2254          1         34         61         61       61.0          0          -          -          -          -
  veclendiving     :          4        221       3316          0        188         70         80       74.5          0          -          -          -          -
Neighborhoods      :      Calls  SetupTime  SolveTime SolveNodes       Sols       Best       Exp3  EpsGreedy        UCB TgtFixRate  Opt  Inf Node Stal  Sol  Usr Othr Actv
  rens             :          1       0.02       0.00          1          0          0    0.00000   -1.00000    0.56700      0.700    0    1    0    0    0    0    0    1
  rins             :          1       0.02       0.00          1          0          0    0.00000   -1.00000    0.56700      0.700    0    1    0    0    0    0    0    1
  mutation         :          4       0.10       0.38        194          5          5    0.00000   -1.00000    0.60409      0.747    1    0    0    2    1    0    0    1
  localbranching   :          1       0.01       0.01          3          0          0    0.00000   -1.00000    0.56500      0.700    0    1    0    0    0    0    0    1
  crossover        :          1       0.02       0.01          1          0          0    0.00000   -1.00000    0.56700      0.700    0    1    0    0    0    0    0    1
  proximity        :          3       0.06       0.16        129          1          1    0.00000   -1.00000    0.60194      0.737    1    1    0    1    0    0    0    1
  zeroobjective    :          2       0.03       0.16        287          1          1    0.00000   -1.00000    0.49839      0.850    1    0    0    1    0    0    0    1
  dins             :          4       0.07       0.11         73          1          1    0.00000   -1.00000    0.46493      0.737    1    1    0    1    0    0    1    1
  trustregion      :          0       0.00       0.00          0          0          0    0.00000   -1.00000    1.00000      0.900    0    0    0    0    0    0    0    0
Expressions        :   #IntEval  IntEvalTi   #RevProp  RevPropTi    DomReds    Cutoffs  #Estimate  EstimTime  Branching  #Simplify SimplifyTi Simplified
  pow              :          0       0.00          0       0.00          0          0          0       0.00          0          0       0.00          0
  prod             :       9900       0.01          0       0.00          0          0          0       0.00          0       6793       0.01          0
  sum              :          8       0.00          2       0.00          0          0          0       0.00          0          3       0.02          2
  var              :       6677       0.00          0       0.00          0          0          0       0.00          0      15744       0.00          0
  varidx           :          0       0.00          0       0.00          0          0          0       0.00          0          0       0.00          0
LP                 :       Time      Calls Iterations  Iter/call   Iter/sec  Time-0-It Calls-0-It    ItLimit
  primal LP        :     132.33       5895          0       0.00       0.00     132.25       5895
  dual LP          :    1912.97      50369    6844263     141.47    3577.82       1.31       1989
  lex dual LP      :       0.00          0          0       0.00          -
  barrier LP       :       0.00          0          0       0.00          -       0.00          0
  resolve instable :       0.00          0          0       0.00          -
  diving/probing LP:     413.08       7975    2246866     281.74    5439.30
  strong branching :      43.08        617     141422     229.21    3282.78          -          -         17
    (at root node) :          -         37      32979     891.32          -
  conflict analysis:       6.51       2908      28483       9.79    4375.27
NLP relaxation     :
  solve time       :      13.67 (8 calls)
  convexity        :  nonconvex (37 linear rows, 0 convex ineq., 0 nonconvex ineq., 1843 nonlinear eq. or two-sided ineq.)
NLP Solvers        :  #Problems  ProblemTi    #Solves  SolveTime      #Iter  Time/Iter      #Okay #TimeLimit #IterLimit #LObjLimit #Interrupt  #NumError #EvalError  #OutOfMem #LicenseEr #OtherTerm   #GlobOpt    #LocOpt  #Feasible #LocInfeas #GlobInfea #Unbounded   #Unknown
  ipopt            :         12       2.07         24     107.65       1715       0.06         21          0          3          0          0          0          0          0          0          0          0          5          1         16          0          0          2
B&B Tree           :
  number of runs   :          1
  nodes            :      39021 (23980 internal, 15041 leaves)
  feasible leaves  :          0
  infeas. leaves   :         21
  objective leaves :      15019
  nodes (total)    :      39021 (23980 internal, 15041 leaves)
  nodes left       :       8902
  max depth        :         56
  max depth (total):         56
  backtracks       :       9902 (25.4%)
  early backtracks :          0 (0.0%)
  nodes exc. ref.  :          0 (0.0%)
  delayed cutoffs  :          4
  repropagations   :         26 (248 domain reductions, 4 cutoffs)
  avg switch length:       6.68
  switching time   :     138.96
Estim. Tree Size   :      78118
Estimation Tree    : 47961 nodes (39059 visited, 23980 internal, 15079 leaves, 8902 open), weight: 0.0000 completed 0.0615
Estimations        :      estim      value      trend resolution     smooth
  wbe              : 14229697267729          -          -          -          -
  tree-profile     :         -1          -          -          -          -
  gap              :    2396381    0.68965    0.00000         16    2298025
  tree-weight      :      78118    0.00000    0.00000         16      78010
  leaf-frequency   :     680372    0.38604    0.00001         16     744814
  ssg              :    1053422    0.90283   -0.00003         16    1081186
  open-nodes       :      78118 8902.00000    5.79834         16      78010
Root Node          :
  First LP value   : -5.58505050505052e+00
  First LP Iters   :       1626 (16260.00 Iter/sec)
  First LP Time    :       0.10
  Final Dual Bound : -5.25801847433390e+00
  Final Root Iters :      15426
  Root LP Estimate : -2.42126969887696e+00
Solution           :
  Solutions found  :         25 (19 improvements)
  First Solution   : +1.00000000000000e+05   (in run 1, after 0 nodes, 0.03 seconds, depth 0, found by <trivial>)
  Gap First Sol.   :   infinite
  Gap Last Sol.    :      48.90 %
  Primal Bound     : -3.21454545454545e+00   (in run 1, after 8055 nodes, 597.71 seconds, depth 40, found by <alns>)
  Dual Bound       : -4.66110815471791e+00
  Gap              :      45.00 %
Integrals          :      Total       Avg%
  primal-dual      :  119586.05      33.22
  primal-ref       :          -          - (not evaluated)
  dual-ref         :          -          - (not evaluated)
